set VV := 0 1 2 ;
set VS := 0 1 2 3 4 5 6 7 8 9 10 ;
param cv := 
0 19
1 14
2 21
;
param cs := 
0 20
1 38
2 31
3 40
4 35
5 21
6 25
7 21
8 33
9 30
10 23
;
param bv:	 0 1 2 := 
		0 0 10 0 
		1 0 0 20 
		2 0 0 0 
;
param bs:	 0 1 2 3 4 5 6 7 8 9 10 := 
		0 0 0 0 0 0 0 0 0 0 30 0 
		1 0 0 0 26 0 0 0 0 0 28 0 
		2 0 0 0 25 0 0 0 0 0 0 0 
		3 0 26 25 0 0 34 0 0 0 0 0 
		4 0 0 0 0 0 0 0 0 34 0 0 
		5 0 0 0 34 0 0 33 0 0 0 0 
		6 0 0 0 0 0 33 0 0 37 0 0 
		7 0 0 0 0 0 0 0 0 0 28 26 
		8 0 0 0 0 34 0 37 0 0 0 0 
		9 30 28 0 0 0 0 0 28 0 0 0 
		10 0 0 0 0 0 0 0 26 0 0 0 
;
